sat
(model
  (define-fun |zip$unknown:5|
    ( (v_0 Int) (v_1 Int) (v_2 Int) ) Bool
    (or (= (+ (* (- 1) v_2) v_0) 0) (not (= (+ v_2 (* (- 1) v_1)) 0)))
  )
  (define-fun |loop$unknown:2|
    ( (v_0 Int) (v_1 Int) ) Bool
    false
  )
)
